treewidth/data/SierpinskiGasketGraph_3.gr
p tw 15 27
1 2
1 11
2 8
2 11
2 12
8 9
8 12
8 13
9 10
9 13
9 14
10 14
11 12
11 15
12 15
13 14
13 4
14 4
15 3
15 5
3 4
3 5
3 6
4 6
5 6
5 7
6 7
