treewidth/data/SierpinskiGasketGraph_3.td
c width = 3, time = 0.201357
s td 10 4 15
b 1 2 8 11 12
b 2 8 11 12 15
b 3 4 8 9 13
b 4 4 9 13 14
b 5 3 4 5 6
b 6 3 4 5 15
b 7 4 8 15
b 8 6 5 7
b 9 11 2 1
b 10 14 9 10
1 2
3 4
5 6
7 3
7 6
2 7
5 8
1 9
4 10
